100
1000
199
198
198
198
197
196
196
196
196
196
195
194
194
193
193
193
192
192
192
191
191
191
189
188
188
187
187
185
185
185
183
183
182
182
182
181
181
181
181
180
180
180
179
179
178
178
177
176
175
175
174
173
172
170
170
169
168
167
166
166
166
166
165
164
163
163
162
162
162
162
161
161
160
160
160
160
160
160
159
159
159
159
158
157
157
156
156
156
156
155
155
154
154
153
153
152
152
151
150
150
